words_easy_train/words_203_SAT.qaiger
aag 48 16 0 1 32
2
14
16
18
22
30
28
10
32
20
26
24
4
8
12
6
97
34 21 19
36 34 23
38 36 25
40 39 16
42 29 27
44 42 41
46 44 31
48 47 33
50 37 24
52 51 39
54 53 17
56 35 22
58 57 37
60 59 14
62 58 15
64 63 61
66 65 55
68 66 49
70 30 26
72 70 50
74 72 28
76 75 32
78 21 13
80 20 12
82 81 79
84 18 11
86 84 83
88 19 10
90 88 82
92 91 87
94 93 77
96 94 68
i0 1 x1[0]
i1 1 x1[6]
i2 1 x1[7]
i3 2 y2[0]
i4 2 y2[2]
i5 2 y2[6]
i6 2 y2[5]
i7 1 x1[4]
i8 2 y2[7]
i9 2 y2[1]
i10 2 y2[4]
i11 2 y2[3]
i12 1 x1[1]
i13 1 x1[3]
i14 1 x1[5]
i15 1 x1[2]
o0 bool[0]
c
simplified
  !=
    >> 4
      1 x1
    subtract
      2 y2
      1
