words_easy_train/words_203_SAT.qaiger.qdimacs
p cnf 48 97
a 1 2 3 4 5 6 7 8 0
e 9 10 11 12 13 14 15 16 17 18 19 20 21 22 23 24 25 26 27 28 29 30 31 32 33 34 35 36 37 38 39 40 41 42 43 44 45 46 47 48 0
10 9 17 0
-10 -17 0
-9 -17 0
-17 11 18 0
17 -18 0
-11 -18 0
-18 12 19 0
18 -19 0
-12 -19 0
19 -8 20 0
-19 -20 0
8 -20 0
14 13 21 0
-14 -21 0
-13 -21 0
-21 20 22 0
21 -22 0
-20 -22 0
-22 15 23 0
22 -23 0
-15 -23 0
23 16 24 0
-23 -24 0
-16 -24 0
18 -12 25 0
-18 -25 0
12 -25 0
25 19 26 0
-25 -26 0
-19 -26 0
26 8 27 0
-26 -27 0
-8 -27 0
17 -11 28 0
-17 -28 0
11 -28 0
28 18 29 0
-28 -29 0
-18 -29 0
29 -7 30 0
-29 -30 0
7 -30 0
-29 7 31 0
29 -31 0
-7 -31 0
31 30 32 0
-31 -32 0
-30 -32 0
32 27 33 0
-32 -33 0
-27 -33 0
-33 24 34 0
33 -34 0
-24 -34 0
-15 -13 35 0
15 -35 0
13 -35 0
-35 -25 36 0
35 -36 0
25 -36 0
-36 -14 37 0
36 -37 0
14 -37 0
37 -16 38 0
-37 -38 0
16 -38 0
10 6 39 0
-10 -39 0
-6 -39 0
-10 -6 40 0
10 -40 0
6 -40 0
40 39 41 0
-40 -41 0
-39 -41 0
-9 5 42 0
9 -42 0
-5 -42 0
-42 41 43 0
42 -43 0
-41 -43 0
9 -5 44 0
-9 -44 0
5 -44 0
-44 -41 45 0
44 -45 0
41 -45 0
45 43 46 0
-45 -46 0
-43 -46 0
46 38 47 0
-46 -47 0
-38 -47 0
-47 -34 48 0
47 -48 0
34 -48 0
-48 0
